interdiction/MCDM/NO_CORR/GEN_FROM_60/17_ITEMS_1000_GEN/K5017W17.KNP.mps
NAME          BLANK   
ROWS
 N  OBJROW
 L  R0000000
COLUMNS
    C0000000  OBJROW     -930.         R0000000  556.        
    C0000001  OBJROW     -937.         R0000000  822.        
    C0000002  OBJROW     -699.         R0000000  102.        
    C0000003  OBJROW     -854.         R0000000  357.        
    C0000004  OBJROW     -38.          R0000000  447.        
    C0000005  OBJROW     -617.         R0000000  77.         
    C0000006  OBJROW     -154.         R0000000  165.        
    C0000007  OBJROW     -543.         R0000000  51.         
    C0000008  OBJROW     -208.         R0000000  84.         
    C0000009  OBJROW     -857.         R0000000  204.        
    C0000010  OBJROW     -507.         R0000000  642.        
    C0000011  OBJROW     -374.         R0000000  505.        
    C0000012  OBJROW     -397.         R0000000  304.        
    C0000013  OBJROW     -649.         R0000000  274.        
    C0000014  OBJROW     -874.         R0000000  521.        
    C0000015  OBJROW     -760.         R0000000  650.        
    C0000016  OBJROW     -667.         R0000000  79.         
RHS
    RHS       R0000000  13735.      
BOUNDS
 BV BOUND     C0000000  1.          
 BV BOUND     C0000001  1.          
 BV BOUND     C0000002  1.          
 BV BOUND     C0000003  1.          
 BV BOUND     C0000004  1.          
 BV BOUND     C0000005  1.          
 BV BOUND     C0000006  1.          
 BV BOUND     C0000007  1.          
 BV BOUND     C0000008  1.          
 BV BOUND     C0000009  1.          
 BV BOUND     C0000010  1.          
 BV BOUND     C0000011  1.          
 BV BOUND     C0000012  1.          
 BV BOUND     C0000013  1.          
 BV BOUND     C0000014  1.          
 BV BOUND     C0000015  1.          
 BV BOUND     C0000016  1.          
ENDATA
