interdiction/MCDM/NO_CORR/GEN_FROM_60/17_ITEMS_1000_GEN/K5017W17.KNP.txt
N 17
M 18
LC 17
LC 18
LC 19
LC 20
LC 21
LC 22
LC 23
LC 24
LC 25
LC 26
LC 27
LC 28
LC 29
LC 30
LC 31
LC 32
LC 33
LR 1
LR 2
LR 3
LR 4
LR 5
LR 6
LR 7
LR 8
LR 9
LR 10
LR 11
LR 12
LR 13
LR 14
LR 15
LR 16
LR 17
LR 18
LO -930
LO -937
LO -699
LO -854
LO -38
LO -617
LO -154
LO -543
LO -208
LO -857
LO -507
LO -374
LO -397
LO -649
LO -874
LO -760
LO -667
OS 1
IC 824
IC 43
IC 453
IC 572
IC 91
IC 364
IC 39
IC 552
IC 115
IC 147
IC 427
IC 424
IC 539
IC 991
IC 556
IC 586
IC 438
IB 3581
